(set-info :origin "NTS benchmark converted to SMT-LIB2 using Eldarica (http://lara.epfl.ch/w/eldarica)")
(set-logic HORN)
(declare-fun p (Int Int Int Int Int Int Int Int Int Int Int Int Int Int Int Int Int Int Int Int Int Int Int Int Int Int Int) Bool)
(assert(forall((A Int)(B Int)(C Int)(D Int)(E Int)(F Int)(G Int)(H Int)(I Int)(J Int)(K Int)(L Int)(M Int)(N Int)(O Int)(P Int)(Q Int)(R Int)(S Int)(T Int)(U Int)(V Int)(W Int)(X Int)(Y Int)(Z Int)(A1 Int)(B1 Int)(C1 Int)(D1 Int)(E1 Int)(F1 Int)(G1 Int)(H1 Int)(I1 Int)(J1 Int)(K1 Int)(L1 Int)(M1 Int)(N1 Int)(O1 Int)(P1 Int)(Q1 Int))(=>(and (and (= A 1) (and (and (and (and (and (and (and (and (and (and (and (and (and (and (and (and (and (and (and (and (and (and (and (and (and (= B1 B) (= C1 C)) (= D1 D)) (= E1 E)) (= F1 F)) (= G1 G)) (= H1 H)) (= I1 I)) (= J1 J)) (= K1 K)) (= L1 L)) (= M1 M)) (= N1 N)) (= B1 O)) (= C1 P)) (= D1 Q)) (= E1 R)) (= F1 S)) (= G1 T)) (= H1 U)) (= O1 V)) (= J1 W)) (= P1 X)) (= G1 Y)) (= Q1 Z)) (= G1 A1))) (and (and (not (not (>= (+ (+ G1 (- 4)) 0) 0))) (not (not (= (* (- 1) Q1) (- 1))))) (not (not (= (* (- 1) P1) (- 1)))))) (p A B C D E F G H I J K L M N O P Q R S T U V W X Y Z A1))))
(assert(forall((A Int)(B Int)(C Int)(D Int)(E Int)(F Int)(G Int)(H Int)(I Int)(J Int)(K Int)(L Int)(M Int)(N Int)(O Int)(P Int)(Q Int)(R Int)(S Int)(T Int)(U Int)(V Int)(W Int)(X Int)(Y Int)(Z Int)(A1 Int)(B1 Int)(C1 Int)(D1 Int)(E1 Int)(F1 Int)(G1 Int)(H1 Int)(I1 Int)(J1 Int)(K1 Int)(L1 Int)(M1 Int)(N1 Int)(O1 Int)(P1 Int)(Q1 Int)(R1 Int)(S1 Int)(T1 Int)(U1 Int)(V1 Int)(W1 Int)(X1 Int)(Y1 Int)(Z1 Int)(A2 Int)(B2 Int))(=>(and false (p B1 C1 D1 E1 F1 G1 H1 I1 J1 K1 L1 M1 N1 O1 P1 Q1 R1 S1 T1 U1 V1 W1 X1 Y1 Z1 A2 B2)) (p A B C D E F G H I J K L M N O P Q R S T U V W X Y Z A1))))
(assert(not (exists((A Int)(B Int)(C Int)(D Int)(E Int)(F Int)(G Int)(H Int)(I Int)(J Int)(K Int)(L Int)(M Int)(N Int)(O Int)(P Int)(Q Int)(R Int)(S Int)(T Int)(U Int)(V Int)(W Int)(X Int)(Y Int)(Z Int)(A1 Int)(B1 Int)(C1 Int)(D1 Int)(E1 Int)(F1 Int)(G1 Int)(H1 Int)(I1 Int)(J1 Int)(K1 Int)(L1 Int)(M1 Int)(N1 Int)(O1 Int)(P1 Int)(Q1 Int)(R1 Int)(S1 Int)(T1 Int)(U1 Int)(V1 Int)(W1 Int)(X1 Int)(Y1 Int)(Z1 Int)(A2 Int))(and (and (and (= A 1) (and (and (and (and (and (and (and (and (and (and (and (and (and (and (and (and (and (and (and (and (and (and (and (and (and (= B C) (= D E)) (= F G)) (= H I)) (= J K)) (= L M)) (= N O)) (= P Q)) (= R S)) (= T U)) (= V W)) (= X Y)) (= Z A1)) (= B1 C1)) (= D1 E1)) (= F1 G1)) (= H1 I1)) (= J1 K1)) (= L1 M1)) (= N1 O1)) (= P1 Q1)) (= R1 S1)) (= T1 U1)) (= V1 W1)) (= X1 Y1)) (= Z1 A2))) (and (and (and (not (not (<= Z1 0))) (not (not (>= (+ (- 1 X1) 0) 0)))) (not (not (>= (+ (+ V1 (- 1)) 0) 0)))) (not (not (>= (+ (- 1 T1) 0) 0))))) (p A C E G I K M O Q S U W Y A1 C1 E1 G1 I1 K1 M1 O1 Q1 S1 U1 W1 Y1 A2)))))
(check-sat)
